32	0

0	1	2
5	1	3
3	1	4
7	1	5
10	1	6
6	2	7	9
6	2	8	10
9	2	11	14
9	1	10
3	2	11	12
6	1	13
5	2	13	14
5	1	15
8	1	15
1	2	16	17
8	2	18	20
2	2	18	19
10	2	21	23
8	1	20
7	2	21	23
3	1	22
5	3	24	25	26
8	3	24	25	26
2	3	27	28	29
4	2	28	29
4	2	28	29
5	2	30	31
7	1	32
4	2	30	31
5	1	32
5	1	32
0	0
